50
6722

577 252
192 101
674 963
450 527
663 47
92 312
150 868
473 694
493 847
279 863
139 951
160 151
209 890
839 831
614 19
861 71
206 294
97 213
753 489
112 290
567 16
264 329
461 588
527 611
422 725
413 5
940 560
717 363
188 808
699 750
698 38
398 171
525 297
886 540
937 725
882 426
188 451
175 11
601 435
906 856
32 835
864 321
823 674
958 769
268 327
213 553
387 367
685 171
77 878
917 2
